PointerNetwork/Ptr_Net_TSPTW/benchmark/n20w40/n20w40.005.txt.solution
1 16 20 7 8 17 9 3 10 14 6 13 19 18 15 2 4 12 21 5 11 
288
